row=8;
Board=[|-1,2,6,1,-1,-1,-1,-1,-1,3|4,1,9,-1,-1,3,-1,2,-1,8|0,5,-1,-1,-1,-1,-1,-1,6,4|-1,7,4,-1,5,8,-1,3,0,-1|8,-1,1,7,-1,6,-1,2,4,3|-1,7,8,-1,2,4,0,-1,5,-1|6,3,-1,7,-1,8,-1,1,0,-1|8,1,0,-1,-1,3,4,-1,7,6|];
bottom=[36,26,35,44,43,41,30,32,36,37]